100
801 0 0 89 356 0 0 89 0 0 890 0 0 712 0 0 0 0 445 0 0 267 0 89 623 712 0 445 534 0 801 0 178 267 0 0 0 445 445 0 623 0 0 0 534 890 0 0 178 0 712 356 0 356 267 0 445 0 712 534 0 0 0 89 0 0 0 0 0 712 623 0 89 0 623 712 356 0 0 801 623 445 0 712 623 267 534 0 0 0 89 534 0 356 890 890 0 534 712 0 
504 87 29 56 224 232 58 56 58 261 560 203 58 448 87 116 29 87 280 261 29 168 145 56 392 448 29 280 336 116 504 145 112 168 87 261 174 280 280 145 392 203 29 29 336 560 174 145 112 203 448 224 29 224 168 58 280 87 448 336 116 145 261 56 145 261 145 58 232 448 392 145 56 58 392 448 224 29 290 504 392 280 29 448 392 168 336 87 116 232 56 336 232 224 560 560 174 336 448 290 
12380
